c "460337.clq"
p edge 202 2976
e 1 17
e 1 19
e 1 26
e 1 31
e 1 34
e 1 39
e 1 41
e 1 42
e 1 59
e 1 60
e 1 69
e 1 83
e 1 98
e 1 114
e 1 133
e 1 181
e 2 17
e 2 18
e 2 19
e 2 20
e 2 22
e 2 23
e 2 27
e 2 30
e 2 31
e 2 35
e 2 39
e 2 48
e 2 52
e 2 53
e 2 55
e 2 61
e 2 63
e 2 65
e 2 68
e 2 72
e 2 76
e 2 78
e 2 86
e 2 87
e 2 95
e 2 103
e 2 113
e 2 115
e 2 128
e 2 137
e 2 140
e 2 158
e 2 161
e 2 163
e 3 17
e 3 18
e 3 19
e 3 23
e 3 25
e 3 26
e 3 27
e 3 28
e 3 29
e 3 30
e 3 36
e 3 37
e 3 38
e 3 40
e 3 49
e 3 62
e 3 65
e 3 67
e 3 68
e 3 75
e 3 76
e 3 78
e 3 82
e 3 110
e 3 115
e 3 135
e 3 138
e 3 148
e 3 168
e 3 172
e 3 193
e 3 199
e 4 17
e 4 18
e 4 20
e 4 24
e 4 25
e 4 26
e 4 29
e 4 32
e 4 33
e 4 34
e 4 36
e 4 37
e 4 47
e 4 49
e 4 52
e 4 53
e 4 57
e 4 61
e 4 79
e 4 82
e 4 83
e 4 87
e 4 94
e 4 97
e 4 102
e 4 103
e 4 109
e 4 124
e 4 131
e 4 135
e 4 138
e 4 139
e 4 147
e 4 150
e 4 157
e 5 17
e 5 18
e 5 19
e 5 20
e 5 21
e 5 22
e 5 23
e 5 24
e 5 25
e 5 27
e 5 28
e 5 30
e 5 31
e 5 32
e 5 33
e 5 35
e 5 36
e 5 41
e 5 42
e 5 43
e 5 46
e 5 48
e 5 52
e 5 56
e 5 61
e 5 62
e 5 70
e 5 72
e 5 75
e 5 77
e 5 78
e 5 79
e 5 81
e 5 86
e 5 88
e 5 90
e 5 94
e 5 97
e 5 99
e 5 103
e 5 114
e 5 121
e 5 125
e 5 128
e 5 132
e 5 133
e 5 134
e 5 141
e 5 146
e 5 160
e 5 175
e 5 181
e 5 187
e 5 190
e 5 192
e 5 200
e 6 17
e 6 18
e 6 19
e 6 20
e 6 21
e 6 22
e 6 23
e 6 24
e 6 25
e 6 28
e 6 29
e 6 31
e 6 33
e 6 40
e 6 44
e 6 45
e 6 48
e 6 54
e 6 60
e 6 66
e 6 69
e 6 70
e 6 81
e 6 83
e 6 85
e 6 88
e 6 118
e 6 125
e 6 149
e 6 158
e 6 192
e 6 200
e 7 17
e 7 18
e 7 19
e 7 20
e 7 21
e 7 22
e 7 23
e 7 24
e 7 25
e 7 26
e 7 27
e 7 29
e 7 30
e 7 34
e 7 36
e 7 38
e 7 41
e 7 42
e 7 44
e 7 47
e 7 58
e 7 61
e 7 68
e 7 73
e 7 77
e 7 82
e 7 83
e 7 88
e 7 89
e 7 96
e 7 110
e 7 112
e 7 113
e 7 162
e 7 165
e 7 179
e 7 187
e 7 191
e 7 195
e 8 17
e 8 18
e 8 19
e 8 20
e 8 21
e 8 22
e 8 23
e 8 26
e 8 28
e 8 31
e 8 32
e 8 35
e 8 38
e 8 39
e 8 41
e 8 43
e 8 44
e 8 46
e 8 47
e 8 49
e 8 51
e 8 70
e 8 74
e 8 76
e 8 77
e 8 81
e 8 83
e 8 85
e 8 89
e 8 90
e 8 98
e 8 99
e 8 104
e 8 108
e 8 112
e 8 113
e 8 115
e 8 119
e 8 128
e 8 130
e 8 132
e 8 133
e 8 134
e 8 137
e 8 142
e 8 144
e 8 151
e 8 157
e 8 162
e 8 164
e 8 167
e 8 169
e 8 171
e 8 173
e 8 176
e 8 185
e 8 189
e 8 191
e 8 193
e 8 200
e 9 17
e 9 18
e 9 19
e 9 21
e 9 32
e 9 33
e 9 35
e 9 36
e 9 45
e 9 56
e 9 64
e 9 66
e 9 78
e 9 79
e 9 130
e 9 139
e 9 146
e 9 149
e 9 192
e 9 199
e 10 17
e 10 18
e 10 19
e 10 20
e 10 21
e 10 22
e 10 23
e 10 24
e 10 26
e 10 28
e 10 29
e 10 31
e 10 32
e 10 35
e 10 37
e 10 39
e 10 41
e 10 42
e 10 44
e 10 46
e 10 48
e 10 49
e 10 50
e 10 53
e 10 54
e 10 55
e 10 57
e 10 59
e 10 62
e 10 64
e 10 67
e 10 69
e 10 74
e 10 78
e 10 79
e 10 81
e 10 85
e 10 86
e 10 91
e 10 98
e 10 101
e 10 103
e 10 109
e 10 110
e 10 111
e 10 113
e 10 114
e 10 115
e 10 117
e 10 118
e 10 119
e 10 121
e 10 131
e 10 135
e 10 142
e 10 144
e 10 146
e 10 153
e 10 156
e 10 158
e 10 164
e 10 166
e 10 174
e 10 181
e 10 186
e 10 195
e 10 199
e 11 17
e 11 18
e 11 19
e 11 20
e 11 21
e 11 23
e 11 24
e 11 25
e 11 26
e 11 27
e 11 37
e 11 39
e 11 42
e 11 48
e 11 50
e 11 56
e 11 60
e 11 61
e 11 63
e 11 64
e 11 68
e 11 80
e 11 83
e 11 86
e 11 93
e 11 94
e 11 96
e 11 97
e 11 102
e 11 104
e 11 107
e 11 116
e 11 126
e 11 133
e 11 141
e 11 156
e 11 164
e 11 175
e 11 185
e 11 198
e 12 17
e 12 18
e 12 19
e 12 20
e 12 21
e 12 22
e 12 23
e 12 24
e 12 25
e 12 26
e 12 27
e 12 28
e 12 29
e 12 30
e 12 33
e 12 34
e 12 36
e 12 40
e 12 42
e 12 47
e 12 51
e 12 55
e 12 58
e 12 59
e 12 62
e 12 66
e 12 72
e 12 82
e 12 90
e 12 91
e 12 98
e 12 105
e 12 108
e 12 128
e 12 130
e 12 133
e 12 135
e 12 136
e 12 137
e 12 146
e 12 149
e 12 158
e 12 159
e 12 176
e 12 187
e 12 191
e 12 196
e 12 201
e 13 17
e 13 18
e 13 20
e 13 21
e 13 22
e 13 23
e 13 24
e 13 25
e 13 26
e 13 30
e 13 34
e 13 37
e 13 38
e 13 46
e 13 47
e 13 48
e 13 50
e 13 51
e 13 59
e 13 60
e 13 71
e 13 73
e 13 75
e 13 117
e 13 120
e 13 132
e 13 140
e 13 146
e 13 153
e 13 163
e 13 189
e 13 193
e 13 201
e 14 17
e 14 18
e 14 19
e 14 20
e 14 21
e 14 22
e 14 25
e 14 28
e 14 31
e 14 33
e 14 38
e 14 39
e 14 41
e 14 44
e 14 50
e 14 56
e 14 57
e 14 60
e 14 62
e 14 79
e 14 81
e 14 85
e 14 105
e 14 108
e 14 113
e 14 132
e 14 148
e 14 162
e 14 166
e 14 169
e 14 170
e 14 177
e 14 181
e 14 187
e 14 188
e 14 196
e 15 17
e 15 18
e 15 19
e 15 20
e 15 21
e 15 22
e 15 24
e 15 27
e 15 29
e 15 30
e 15 31
e 15 38
e 15 52
e 15 53
e 15 56
e 15 61
e 15 70
e 15 71
e 15 72
e 15 78
e 15 79
e 15 81
e 15 82
e 15 84
e 15 86
e 15 93
e 15 94
e 15 95
e 15 98
e 15 105
e 15 107
e 15 110
e 15 113
e 15 116
e 15 117
e 15 123
e 15 124
e 15 127
e 15 143
e 15 144
e 15 161
e 15 165
e 15 175
e 15 182
e 15 185
e 15 197
e 16 17
e 16 18
e 16 19
e 16 20
e 16 21
e 16 22
e 16 26
e 16 27
e 16 28
e 16 29
e 16 33
e 16 38
e 16 41
e 16 47
e 16 49
e 16 52
e 16 75
e 16 76
e 16 87
e 16 124
e 16 134
e 16 135
e 16 140
e 16 160
e 16 178
e 16 179
e 16 184
e 16 200
e 17 18
e 17 19
e 17 20
e 17 21
e 17 22
e 17 23
e 17 24
e 17 25
e 17 26
e 17 28
e 17 29
e 17 30
e 17 32
e 17 33
e 17 34
e 17 35
e 17 37
e 17 38
e 17 39
e 17 40
e 17 42
e 17 43
e 17 45
e 17 46
e 17 49
e 17 50
e 17 51
e 17 53
e 17 58
e 17 59
e 17 60
e 17 61
e 17 63
e 17 65
e 17 66
e 17 67
e 17 68
e 17 73
e 17 74
e 17 76
e 17 79
e 17 93
e 17 96
e 17 97
e 17 98
e 17 101
e 17 106
e 17 107
e 17 111
e 17 112
e 17 118
e 17 119
e 17 121
e 17 125
e 17 128
e 17 129
e 17 130
e 17 131
e 17 133
e 17 135
e 17 136
e 17 140
e 17 141
e 17 144
e 17 145
e 17 155
e 17 158
e 17 160
e 17 165
e 17 166
e 17 168
e 17 169
e 17 173
e 17 177
e 17 180
e 17 182
e 17 185
e 17 186
e 17 191
e 17 194
e 17 199
e 17 202
e 18 19
e 18 20
e 18 21
e 18 22
e 18 23
e 18 24
e 18 25
e 18 26
e 18 28
e 18 29
e 18 30
e 18 31
e 18 34
e 18 35
e 18 36
e 18 38
e 18 42
e 18 44
e 18 45
e 18 47
e 18 48
e 18 50
e 18 52
e 18 54
e 18 55
e 18 57
e 18 59
e 18 60
e 18 63
e 18 64
e 18 67
e 18 71
e 18 72
e 18 74
e 18 76
e 18 77
e 18 84
e 18 85
e 18 86
e 18 90
e 18 99
e 18 100
e 18 109
e 18 112
e 18 120
e 18 124
e 18 125
e 18 127
e 18 129
e 18 132
e 18 133
e 18 134
e 18 137
e 18 151
e 18 155
e 18 160
e 18 164
e 18 165
e 18 178
e 18 182
e 18 184
e 18 187
e 18 188
e 18 202
e 19 20
e 19 21
e 19 22
e 19 23
e 19 24
e 19 27
e 19 28
e 19 29
e 19 30
e 19 33
e 19 36
e 19 38
e 19 42
e 19 43
e 19 47
e 19 53
e 19 55
e 19 57
e 19 58
e 19 66
e 19 68
e 19 70
e 19 74
e 19 88
e 19 98
e 19 101
e 19 103
e 19 104
e 19 108
e 19 110
e 19 129
e 19 133
e 19 138
e 19 139
e 19 141
e 19 143
e 19 152
e 19 159
e 19 163
e 19 165
e 19 172
e 19 173
e 19 176
e 19 188
e 19 201
e 20 21
e 20 22
e 20 23
e 20 24
e 20 25
e 20 26
e 20 27
e 20 30
e 20 31
e 20 32
e 20 34
e 20 35
e 20 36
e 20 38
e 20 39
e 20 40
e 20 41
e 20 42
e 20 44
e 20 45
e 20 46
e 20 47
e 20 48
e 20 49
e 20 51
e 20 53
e 20 54
e 20 55
e 20 62
e 20 63
e 20 64
e 20 65
e 20 69
e 20 73
e 20 76
e 20 77
e 20 78
e 20 79
e 20 81
e 20 84
e 20 85
e 20 90
e 20 92
e 20 94
e 20 97
e 20 99
e 20 100
e 20 103
e 20 110
e 20 112
e 20 114
e 20 115
e 20 120
e 20 121
e 20 126
e 20 133
e 20 138
e 20 141
e 20 144
e 20 146
e 20 151
e 20 156
e 20 159
e 20 163
e 20 170
e 20 175
e 20 176
e 20 177
e 20 181
e 20 190
e 20 198
e 20 199
e 20 201
e 21 22
e 21 23
e 21 24
e 21 25
e 21 26
e 21 27
e 21 28
e 21 30
e 21 34
e 21 35
e 21 37
e 21 39
e 21 40
e 21 41
e 21 44
e 21 49
e 21 50
e 21 51
e 21 53
e 21 58
e 21 60
e 21 67
e 21 73
e 21 76
e 21 77
e 21 78
e 21 80
e 21 85
e 21 91
e 21 99
e 21 101
e 21 106
e 21 108
e 21 112
e 21 113
e 21 120
e 21 122
e 21 125
e 21 127
e 21 135
e 21 141
e 21 143
e 21 144
e 21 154
e 21 156
e 21 175
e 21 177
e 21 178
e 21 179
e 21 183
e 21 185
e 21 194
e 21 195
e 22 23
e 22 24
e 22 25
e 22 26
e 22 27
e 22 29
e 22 31
e 22 32
e 22 33
e 22 35
e 22 38
e 22 39
e 22 40
e 22 41
e 22 42
e 22 44
e 22 45
e 22 48
e 22 50
e 22 51
e 22 58
e 22 62
e 22 64
e 22 69
e 22 71
e 22 73
e 22 74
e 22 80
e 22 89
e 22 91
e 22 92
e 22 94
e 22 99
e 22 102
e 22 105
e 22 108
e 22 118
e 22 119
e 22 129
e 22 139
e 22 141
e 22 142
e 22 154
e 22 155
e 22 159
e 22 164
e 22 167
e 23 24
e 23 25
e 23 27
e 23 28
e 23 29
e 23 30
e 23 32
e 23 33
e 23 34
e 23 37
e 23 38
e 23 40
e 23 41
e 23 42
e 23 43
e 23 45
e 23 46
e 23 47
e 23 48
e 23 49
e 23 51
e 23 52
e 23 54
e 23 56
e 23 57
e 23 58
e 23 59
e 23 60
e 23 61
e 23 64
e 23 65
e 23 66
e 23 67
e 23 71
e 23 77
e 23 78
e 23 85
e 23 86
e 23 89
e 23 92
e 23 93
e 23 100
e 23 110
e 23 112
e 23 118
e 23 123
e 23 126
e 23 127
e 23 128
e 23 130
e 23 140
e 23 143
e 23 145
e 23 150
e 23 154
e 23 159
e 23 160
e 23 161
e 23 169
e 23 171
e 23 175
e 23 176
e 23 178
e 23 181
e 23 182
e 23 183
e 23 184
e 23 185
e 23 188
e 23 190
e 23 197
e 23 200
e 23 202
e 24 25
e 24 27
e 24 28
e 24 30
e 24 31
e 24 32
e 24 33
e 24 35
e 24 36
e 24 37
e 24 38
e 24 42
e 24 43
e 24 45
e 24 49
e 24 51
e 24 52
e 24 60
e 24 64
e 24 65
e 24 69
e 24 73
e 24 83
e 24 84
e 24 88
e 24 103
e 24 104
e 24 107
e 24 109
e 24 112
e 24 116
e 24 120
e 24 122
e 24 132
e 24 134
e 24 136
e 24 145
e 24 147
e 24 151
e 24 154
e 24 160
e 24 177
e 24 188
e 24 198
e 25 26
e 25 27
e 25 28
e 25 29
e 25 30
e 25 31
e 25 32
e 25 33
e 25 34
e 25 35
e 25 37
e 25 38
e 25 39
e 25 40
e 25 43
e 25 46
e 25 47
e 25 50
e 25 52
e 25 54
e 25 58
e 25 60
e 25 63
e 25 69
e 25 74
e 25 75
e 25 80
e 25 90
e 25 92
e 25 105
e 25 108
e 25 110
e 25 114
e 25 122
e 25 123
e 25 129
e 25 134
e 25 135
e 25 140
e 25 144
e 25 146
e 25 149
e 25 150
e 25 153
e 25 162
e 25 166
e 25 167
e 25 168
e 25 170
e 25 171
e 25 172
e 25 175
e 25 185
e 25 186
e 25 190
e 25 196
e 25 198
e 25 200
e 26 27
e 26 28
e 26 36
e 26 41
e 26 42
e 26 43
e 26 44
e 26 45
e 26 46
e 26 50
e 26 51
e 26 55
e 26 57
e 26 64
e 26 70
e 26 71
e 26 75
e 26 78
e 26 79
e 26 80
e 26 84
e 26 91
e 26 103
e 26 107
e 26 108
e 26 111
e 26 121
e 26 124
e 26 126
e 26 127
e 26 145
e 26 150
e 26 156
e 26 175
e 26 177
e 26 186
e 26 190
e 26 192
e 26 193
e 26 199
e 27 29
e 27 32
e 27 34
e 27 35
e 27 36
e 27 37
e 27 39
e 27 43
e 27 45
e 27 47
e 27 48
e 27 49
e 27 50
e 27 51
e 27 56
e 27 57
e 27 59
e 27 61
e 27 63
e 27 65
e 27 67
e 27 71
e 27 77
e 27 79
e 27 88
e 27 90
e 27 93
e 27 94
e 27 101
e 27 103
e 27 107
e 27 117
e 27 120
e 27 124
e 27 128
e 27 133
e 27 135
e 27 136
e 27 137
e 27 139
e 27 140
e 27 145
e 27 146
e 27 147
e 27 150
e 27 157
e 27 172
e 27 181
e 27 185
e 27 189
e 27 191
e 28 29
e 28 30
e 28 31
e 28 32
e 28 36
e 28 40
e 28 46
e 28 61
e 28 64
e 28 75
e 28 84
e 28 87
e 28 96
e 28 97
e 28 102
e 28 111
e 28 112
e 28 114
e 28 117
e 28 126
e 28 130
e 28 132
e 28 136
e 28 149
e 28 152
e 28 157
e 28 180
e 29 31
e 29 32
e 29 33
e 29 34
e 29 35
e 29 36
e 29 37
e 29 38
e 29 39
e 29 40
e 29 43
e 29 44
e 29 45
e 29 46
e 29 49
e 29 50
e 29 52
e 29 54
e 29 55
e 29 56
e 29 57
e 29 59
e 29 65
e 29 66
e 29 67
e 29 68
e 29 70
e 29 71
e 29 72
e 29 75
e 29 76
e 29 80
e 29 81
e 29 82
e 29 87
e 29 88
e 29 89
e 29 91
e 29 92
e 29 93
e 29 95
e 29 96
e 29 99
e 29 100
e 29 102
e 29 104
e 29 108
e 29 117
e 29 122
e 29 123
e 29 131
e 29 133
e 29 140
e 29 147
e 29 148
e 29 149
e 29 154
e 29 171
e 29 179
e 29 180
e 29 187
e 30 31
e 30 32
e 30 33
e 30 34
e 30 45
e 30 46
e 30 47
e 30 48
e 30 53
e 30 54
e 30 55
e 30 60
e 30 61
e 30 64
e 30 67
e 30 70
e 30 73
e 30 78
e 30 83
e 30 84
e 30 87
e 30 91
e 30 94
e 30 121
e 30 133
e 30 138
e 30 142
e 30 148
e 30 150
e 30 154
e 30 156
e 30 166
e 30 167
e 30 178
e 30 179
e 30 200
e 31 32
e 31 34
e 31 40
e 31 42
e 31 44
e 31 46
e 31 58
e 31 66
e 31 71
e 31 72
e 31 79
e 31 85
e 31 100
e 31 102
e 31 105
e 31 106
e 31 110
e 31 116
e 31 120
e 31 121
e 31 124
e 31 137
e 31 141
e 31 144
e 31 168
e 31 170
e 31 179
e 31 181
e 31 191
e 31 202
e 32 33
e 32 35
e 32 37
e 32 39
e 32 41
e 32 43
e 32 44
e 32 51
e 32 52
e 32 53
e 32 55
e 32 56
e 32 61
e 32 65
e 32 66
e 32 69
e 32 70
e 32 72
e 32 74
e 32 75
e 32 77
e 32 80
e 32 96
e 32 98
e 32 99
e 32 100
e 32 102
e 32 106
e 32 115
e 32 121
e 32 134
e 32 140
e 32 157
e 32 166
e 32 178
e 32 183
e 32 189
e 32 191
e 32 195
e 32 199
e 33 34
e 33 36
e 33 41
e 33 43
e 33 44
e 33 47
e 33 49
e 33 57
e 33 64
e 33 66
e 33 68
e 33 73
e 33 76
e 33 77
e 33 82
e 33 84
e 33 88
e 33 91
e 33 92
e 33 94
e 33 95
e 33 98
e 33 109
e 33 112
e 33 117
e 33 123
e 33 125
e 33 126
e 33 128
e 33 131
e 33 135
e 33 143
e 33 144
e 33 146
e 33 152
e 33 153
e 33 156
e 33 160
e 33 161
e 33 171
e 33 189
e 33 193
e 33 197
e 34 35
e 34 37
e 34 39
e 34 40
e 34 41
e 34 47
e 34 48
e 34 49
e 34 54
e 34 56
e 34 58
e 34 70
e 34 72
e 34 74
e 34 88
e 34 90
e 34 103
e 34 106
e 34 112
e 34 120
e 34 123
e 34 125
e 34 127
e 34 129
e 34 139
e 34 148
e 34 151
e 34 153
e 34 155
e 34 159
e 34 164
e 34 173
e 34 174
e 34 183
e 34 191
e 34 193
e 35 36
e 35 37
e 35 40
e 35 41
e 35 50
e 35 55
e 35 64
e 35 75
e 35 79
e 35 80
e 35 84
e 35 95
e 35 97
e 35 100
e 35 115
e 35 137
e 35 159
e 35 167
e 35 168
e 35 182
e 35 184
e 35 187
e 35 189
e 35 195
e 35 201
e 36 37
e 36 40
e 36 43
e 36 45
e 36 46
e 36 48
e 36 50
e 36 55
e 36 68
e 36 80
e 36 86
e 36 90
e 36 99
e 36 100
e 36 101
e 36 104
e 36 107
e 36 123
e 36 127
e 36 129
e 36 134
e 36 146
e 36 149
e 36 154
e 36 169
e 36 181
e 36 187
e 36 189
e 36 190
e 37 39
e 37 52
e 37 53
e 37 57
e 37 62
e 37 67
e 37 76
e 37 79
e 37 81
e 37 82
e 37 88
e 37 101
e 37 124
e 37 125
e 37 167
e 37 187
e 38 40
e 38 54
e 38 57
e 38 63
e 38 71
e 38 77
e 38 80
e 38 86
e 38 100
e 38 101
e 38 106
e 38 115
e 38 127
e 38 135
e 38 137
e 38 139
e 38 156
e 38 157
e 38 174
e 38 176
e 38 178
e 38 185
e 38 188
e 39 43
e 39 44
e 39 45
e 39 46
e 39 49
e 39 52
e 39 55
e 39 59
e 39 65
e 39 68
e 39 72
e 39 74
e 39 77
e 39 87
e 39 88
e 39 90
e 39 91
e 39 96
e 39 98
e 39 100
e 39 103
e 39 105
e 39 119
e 39 121
e 39 127
e 39 137
e 39 138
e 39 142
e 39 143
e 39 148
e 39 151
e 39 161
e 39 162
e 39 169
e 39 173
e 39 183
e 39 188
e 39 190
e 39 201
e 40 42
e 40 43
e 40 45
e 40 48
e 40 52
e 40 53
e 40 54
e 40 57
e 40 60
e 40 63
e 40 64
e 40 67
e 40 73
e 40 75
e 40 78
e 40 100
e 40 120
e 40 170
e 40 171
e 40 172
e 40 173
e 40 180
e 40 186
e 40 193
e 40 194
e 40 200
e 41 43
e 41 56
e 41 65
e 41 69
e 41 71
e 41 72
e 41 76
e 41 82
e 41 83
e 41 87
e 41 91
e 41 116
e 41 117
e 41 119
e 41 127
e 41 137
e 41 157
e 41 162
e 41 169
e 41 183
e 42 45
e 42 49
e 42 51
e 42 53
e 42 54
e 42 55
e 42 62
e 42 67
e 42 68
e 42 74
e 42 77
e 42 78
e 42 84
e 42 92
e 42 111
e 42 117
e 42 131
e 42 134
e 42 141
e 42 146
e 42 147
e 42 148
e 42 160
e 42 165
e 42 178
e 42 192
e 42 193
e 42 195
e 43 44
e 43 46
e 43 54
e 43 56
e 43 59
e 43 60
e 43 62
e 43 63
e 43 67
e 43 72
e 43 80
e 43 86
e 43 109
e 43 115
e 43 119
e 43 122
e 43 124
e 43 126
e 43 128
e 43 129
e 43 137
e 43 138
e 43 140
e 43 146
e 43 152
e 43 153
e 43 168
e 43 186
e 43 187
e 43 201
e 44 50
e 44 54
e 44 74
e 44 86
e 44 90
e 44 92
e 44 97
e 44 98
e 44 102
e 44 103
e 44 122
e 44 125
e 44 130
e 44 131
e 44 135
e 44 163
e 44 202
e 45 48
e 45 51
e 45 52
e 45 54
e 45 59
e 45 62
e 45 64
e 45 66
e 45 69
e 45 70
e 45 80
e 45 81
e 45 83
e 45 86
e 45 87
e 45 88
e 45 90
e 45 93
e 45 98
e 45 106
e 45 108
e 45 116
e 45 122
e 45 130
e 45 135
e 45 136
e 45 145
e 45 156
e 45 166
e 45 167
e 45 184
e 45 186
e 45 193
e 46 47
e 46 56
e 46 57
e 46 59
e 46 65
e 46 72
e 46 82
e 46 88
e 46 89
e 46 93
e 46 103
e 46 123
e 46 130
e 46 137
e 46 138
e 46 152
e 46 153
e 46 169
e 47 50
e 47 51
e 47 58
e 47 61
e 47 67
e 47 69
e 47 73
e 47 75
e 47 80
e 47 82
e 47 84
e 47 94
e 47 98
e 47 104
e 47 107
e 47 120
e 47 122
e 47 125
e 47 139
e 47 142
e 47 144
e 47 158
e 47 160
e 47 162
e 47 180
e 47 184
e 47 192
e 48 51
e 48 52
e 48 57
e 48 59
e 48 65
e 48 67
e 48 70
e 48 71
e 48 75
e 48 78
e 48 90
e 48 95
e 48 99
e 48 113
e 48 115
e 48 122
e 48 125
e 48 141
e 48 158
e 48 174
e 48 183
e 48 187
e 48 197
e 49 53
e 49 56
e 49 65
e 49 66
e 49 69
e 49 70
e 49 76
e 49 81
e 49 82
e 49 86
e 49 87
e 49 89
e 49 91
e 49 105
e 49 109
e 49 111
e 49 112
e 49 113
e 49 118
e 49 119
e 49 123
e 49 127
e 49 128
e 49 130
e 49 150
e 49 161
e 49 163
e 49 167
e 49 171
e 49 182
e 49 187
e 49 192
e 49 200
e 49 201
e 50 53
e 50 58
e 50 67
e 50 70
e 50 90
e 50 92
e 50 95
e 50 111
e 50 118
e 50 144
e 50 146
e 50 160
e 50 167
e 50 177
e 50 189
e 50 191
e 50 192
e 51 53
e 51 55
e 51 58
e 51 61
e 51 72
e 51 74
e 51 81
e 51 82
e 51 85
e 51 93
e 51 95
e 51 97
e 51 104
e 51 107
e 51 109
e 51 110
e 51 117
e 51 124
e 51 181
e 51 183
e 51 200
e 51 201
e 52 55
e 52 58
e 52 60
e 52 61
e 52 87
e 52 101
e 52 104
e 52 105
e 52 108
e 52 113
e 52 134
e 52 135
e 52 139
e 52 140
e 52 143
e 52 151
e 52 153
e 52 161
e 52 170
e 52 172
e 52 174
e 52 180
e 52 182
e 52 184
e 52 196
e 52 202
e 53 54
e 53 56
e 53 58
e 53 62
e 53 84
e 53 86
e 53 94
e 53 97
e 53 99
e 53 104
e 53 106
e 53 107
e 53 111
e 53 117
e 53 118
e 53 137
e 53 138
e 53 170
e 53 172
e 53 186
e 54 59
e 54 66
e 54 69
e 54 71
e 54 83
e 54 89
e 54 96
e 54 100
e 54 101
e 54 105
e 54 107
e 54 109
e 54 119
e 54 127
e 54 136
e 54 163
e 54 170
e 54 174
e 54 178
e 54 179
e 54 180
e 54 189
e 54 190
e 55 56
e 55 57
e 55 58
e 55 60
e 55 62
e 55 63
e 55 68
e 55 72
e 55 80
e 55 85
e 55 87
e 55 96
e 55 100
e 55 110
e 55 111
e 55 114
e 55 115
e 55 119
e 55 122
e 55 124
e 55 128
e 55 130
e 55 131
e 55 138
e 55 145
e 55 154
e 55 155
e 55 156
e 55 158
e 55 192
e 55 194
e 55 195
e 56 59
e 56 63
e 56 68
e 56 78
e 56 105
e 56 115
e 56 117
e 56 131
e 56 132
e 56 134
e 56 138
e 56 148
e 56 155
e 56 173
e 56 174
e 56 175
e 56 183
e 56 191
e 56 193
e 57 62
e 57 63
e 57 69
e 57 71
e 57 73
e 57 77
e 57 86
e 57 88
e 57 93
e 57 100
e 57 101
e 57 110
e 57 111
e 57 131
e 57 137
e 57 155
e 57 156
e 57 165
e 57 178
e 57 185
e 57 186
e 57 201
e 58 62
e 58 70
e 58 73
e 58 81
e 58 87
e 58 90
e 58 91
e 58 92
e 58 94
e 58 103
e 58 107
e 58 110
e 58 116
e 58 120
e 58 121
e 58 138
e 58 141
e 58 142
e 58 146
e 58 149
e 58 163
e 58 182
e 58 188
e 58 193
e 58 194
e 58 200
e 58 201
e 59 61
e 59 62
e 59 63
e 59 66
e 59 73
e 59 81
e 59 91
e 59 94
e 59 99
e 59 110
e 59 116
e 59 118
e 59 126
e 59 142
e 59 150
e 59 152
e 59 155
e 59 171
e 59 177
e 59 189
e 59 199
e 60 63
e 60 65
e 60 66
e 60 84
e 60 86
e 60 89
e 60 96
e 60 102
e 60 108
e 60 109
e 60 117
e 60 119
e 60 129
e 60 136
e 60 150
e 60 155
e 60 156
e 60 163
e 60 181
e 60 195
e 61 63
e 61 64
e 61 68
e 61 69
e 61 74
e 61 77
e 61 82
e 61 83
e 61 124
e 61 134
e 61 149
e 61 159
e 61 162
e 61 165
e 61 172
e 61 176
e 61 177
e 61 184
e 61 186
e 62 66
e 62 71
e 62 73
e 62 84
e 62 93
e 62 97
e 62 99
e 62 100
e 62 101
e 62 128
e 62 142
e 62 146
e 62 147
e 62 149
e 62 175
e 62 184
e 62 187
e 62 189
e 62 198
e 63 68
e 63 70
e 63 72
e 63 81
e 63 89
e 63 94
e 63 97
e 63 103
e 63 111
e 63 112
e 63 121
e 63 124
e 63 139
e 63 145
e 63 148
e 63 149
e 63 158
e 63 159
e 63 164
e 63 177
e 63 179
e 63 180
e 63 181
e 63 184
e 63 186
e 63 195
e 63 197
e 64 65
e 64 73
e 64 76
e 64 79
e 64 88
e 64 104
e 64 109
e 64 114
e 64 123
e 64 152
e 64 183
e 64 187
e 65 68
e 65 75
e 65 76
e 65 87
e 65 104
e 65 105
e 65 121
e 65 126
e 65 143
e 65 161
e 65 169
e 65 174
e 65 192
e 65 196
e 66 83
e 66 95
e 66 114
e 66 154
e 66 159
e 67 69
e 67 71
e 67 79
e 67 80
e 67 96
e 67 105
e 67 109
e 67 114
e 67 120
e 67 149
e 67 164
e 67 165
e 67 174
e 68 84
e 68 93
e 68 99
e 68 119
e 68 140
e 68 142
e 68 143
e 68 147
e 68 157
e 68 172
e 68 176
e 69 74
e 69 94
e 69 108
e 69 109
e 69 117
e 69 171
e 70 74
e 70 89
e 70 95
e 70 101
e 70 104
e 70 116
e 70 122
e 70 147
e 70 153
e 70 157
e 70 159
e 70 175
e 70 196
e 71 75
e 71 95
e 71 97
e 71 98
e 71 100
e 71 142
e 71 145
e 71 147
e 71 154
e 71 158
e 71 181
e 71 202
e 72 76
e 72 82
e 72 89
e 72 91
e 72 96
e 72 97
e 72 101
e 72 122
e 72 124
e 72 129
e 72 140
e 72 167
e 72 199
e 73 75
e 73 79
e 73 85
e 73 89
e 73 92
e 73 93
e 73 95
e 73 102
e 73 104
e 73 106
e 73 113
e 73 116
e 73 127
e 73 129
e 73 130
e 73 132
e 73 148
e 73 164
e 73 167
e 73 172
e 73 176
e 73 180
e 73 183
e 73 184
e 74 77
e 74 78
e 74 93
e 74 96
e 74 111
e 74 114
e 74 118
e 74 122
e 74 157
e 74 162
e 74 164
e 74 177
e 74 197
e 75 84
e 75 91
e 75 96
e 75 98
e 75 102
e 75 119
e 75 128
e 75 145
e 75 151
e 75 153
e 75 164
e 75 174
e 75 192
e 76 83
e 76 96
e 76 102
e 76 119
e 76 123
e 76 127
e 76 130
e 76 139
e 76 158
e 76 169
e 77 95
e 77 98
e 77 106
e 77 110
e 77 133
e 77 157
e 78 88
e 78 99
e 78 116
e 78 133
e 78 136
e 78 139
e 78 152
e 78 153
e 78 155
e 78 161
e 78 174
e 78 182
e 78 185
e 79 80
e 79 81
e 79 83
e 79 92
e 79 95
e 79 107
e 79 109
e 79 116
e 79 136
e 79 144
e 79 150
e 79 158
e 79 168
e 79 186
e 79 189
e 80 85
e 80 89
e 80 113
e 80 145
e 80 163
e 80 172
e 80 190
e 81 82
e 81 85
e 81 112
e 81 124
e 81 129
e 81 137
e 81 161
e 81 171
e 81 179
e 81 195
e 82 83
e 82 85
e 82 87
e 82 113
e 82 114
e 82 119
e 82 134
e 82 135
e 82 138
e 82 145
e 82 147
e 82 165
e 82 189
e 82 199
e 83 85
e 83 87
e 83 92
e 83 93
e 83 102
e 83 105
e 83 106
e 83 110
e 83 115
e 83 133
e 83 142
e 83 156
e 83 166
e 83 168
e 83 172
e 84 89
e 84 101
e 84 116
e 84 130
e 84 131
e 84 136
e 84 141
e 84 152
e 84 159
e 85 92
e 85 104
e 85 109
e 85 120
e 85 125
e 85 163
e 85 171
e 85 197
e 86 90
e 86 91
e 86 103
e 86 105
e 86 114
e 86 125
e 86 126
e 86 132
e 86 144
e 86 148
e 86 152
e 86 162
e 86 168
e 86 173
e 86 194
e 86 200
e 86 202
e 87 89
e 87 94
e 87 99
e 87 107
e 87 108
e 87 138
e 87 139
e 87 168
e 87 182
e 87 183
e 87 199
e 88 92
e 88 96
e 88 97
e 88 106
e 88 114
e 88 145
e 88 157
e 88 165
e 88 174
e 88 175
e 88 198
e 89 93
e 89 97
e 89 121
e 89 125
e 89 151
e 89 155
e 89 158
e 89 170
e 89 171
e 89 196
e 89 198
e 90 92
e 90 95
e 90 102
e 90 128
e 90 142
e 90 161
e 90 202
e 91 106
e 91 107
e 91 116
e 91 121
e 91 151
e 91 166
e 92 106
e 92 117
e 92 123
e 92 140
e 92 142
e 92 143
e 92 174
e 92 177
e 92 180
e 93 95
e 93 106
e 93 120
e 93 122
e 93 162
e 93 163
e 94 102
e 94 111
e 94 120
e 94 123
e 94 128
e 94 130
e 94 131
e 94 132
e 94 159
e 94 173
e 94 185
e 94 198
e 95 102
e 95 108
e 95 111
e 95 113
e 95 117
e 95 132
e 95 142
e 95 151
e 95 152
e 95 157
e 95 169
e 95 194
e 96 114
e 96 118
e 96 136
e 96 159
e 97 109
e 97 118
e 97 121
e 97 126
e 97 134
e 97 137
e 97 170
e 97 189
e 98 113
e 98 116
e 98 148
e 98 150
e 98 151
e 98 177
e 98 191
e 99 104
e 99 112
e 99 126
e 99 131
e 99 140
e 99 155
e 99 161
e 100 101
e 100 113
e 100 132
e 100 153
e 100 168
e 100 176
e 100 194
e 101 112
e 101 118
e 101 119
e 101 131
e 101 155
e 101 165
e 101 198
e 102 136
e 102 151
e 102 162
e 102 179
e 102 182
e 103 105
e 103 108
e 103 126
e 103 127
e 103 141
e 103 145
e 103 148
e 103 153
e 103 154
e 103 168
e 103 178
e 103 179
e 103 190
e 104 106
e 104 107
e 104 115
e 104 118
e 104 139
e 104 143
e 104 152
e 104 160
e 104 166
e 104 176
e 104 184
e 105 115
e 105 118
e 105 121
e 105 126
e 105 147
e 105 168
e 105 169
e 105 182
e 105 197
e 105 201
e 106 111
e 106 120
e 106 125
e 106 141
e 106 169
e 106 174
e 107 127
e 107 135
e 107 142
e 107 144
e 107 179
e 107 201
e 108 114
e 108 125
e 108 160
e 108 161
e 108 195
e 108 201
e 109 111
e 109 123
e 109 126
e 109 128
e 109 134
e 109 155
e 110 152
e 110 169
e 110 188
e 111 123
e 111 165
e 111 169
e 111 171
e 112 116
e 112 126
e 112 151
e 112 157
e 112 173
e 112 175
e 112 188
e 112 198
e 113 131
e 113 134
e 113 140
e 113 143
e 113 197
e 113 199
e 114 115
e 114 136
e 114 150
e 114 161
e 114 168
e 115 149
e 115 153
e 115 176
e 115 190
e 115 194
e 115 197
e 116 122
e 116 184
e 116 194
e 117 118
e 117 123
e 117 138
e 117 143
e 117 152
e 117 163
e 117 166
e 117 176
e 117 183
e 117 202
e 118 122
e 118 148
e 118 150
e 118 165
e 118 169
e 119 124
e 119 132
e 119 143
e 119 147
e 119 155
e 119 175
e 119 179
e 120 172
e 120 193
e 121 129
e 121 131
e 121 144
e 121 183
e 121 184
e 121 202
e 122 129
e 122 150
e 122 154
e 122 176
e 122 180
e 122 188
e 122 194
e 122 202
e 123 148
e 123 156
e 123 159
e 123 165
e 123 167
e 123 170
e 123 177
e 123 184
e 123 191
e 123 195
e 123 198
e 124 147
e 124 152
e 124 178
e 124 179
e 124 193
e 125 129
e 125 141
e 125 145
e 125 146
e 125 149
e 125 154
e 125 159
e 125 164
e 125 168
e 125 170
e 125 188
e 125 191
e 126 129
e 126 132
e 126 151
e 126 164
e 126 167
e 126 171
e 126 172
e 127 130
e 127 138
e 127 139
e 127 149
e 127 151
e 127 153
e 127 166
e 127 167
e 127 170
e 127 171
e 127 180
e 127 182
e 127 198
e 128 148
e 128 161
e 128 168
e 128 181
e 128 197
e 129 143
e 129 154
e 129 164
e 129 174
e 129 201
e 130 133
e 130 139
e 130 143
e 130 163
e 130 166
e 130 191
e 131 132
e 131 136
e 131 162
e 131 170
e 131 176
e 131 180
e 131 194
e 132 145
e 132 187
e 132 192
e 132 197
e 132 199
e 132 202
e 133 157
e 133 158
e 133 180
e 133 190
e 133 196
e 133 197
e 133 199
e 133 200
e 134 136
e 134 156
e 134 175
e 135 147
e 135 166
e 135 173
e 135 185
e 135 196
e 135 202
e 136 196
e 136 198
e 137 161
e 137 173
e 137 175
e 137 178
e 137 186
e 138 141
e 138 173
e 138 181
e 139 153
e 139 160
e 139 172
e 139 179
e 139 195
e 139 196
e 139 197
e 140 147
e 140 163
e 140 164
e 140 166
e 141 147
e 141 150
e 141 180
e 141 184
e 141 196
e 141 201
e 142 192
e 143 144
e 143 154
e 143 160
e 143 162
e 143 202
e 144 152
e 144 156
e 144 181
e 145 154
e 145 185
e 145 194
e 145 196
e 146 150
e 146 162
e 146 163
e 146 178
e 146 180
e 146 200
e 147 149
e 147 193
e 147 199
e 148 158
e 148 162
e 148 172
e 148 173
e 148 179
e 148 185
e 149 177
e 150 158
e 150 173
e 151 166
e 151 174
e 153 155
e 153 186
e 154 170
e 154 173
e 154 188
e 155 165
e 155 187
e 156 157
e 156 164
e 156 176
e 156 193
e 157 160
e 157 170
e 157 183
e 157 197
e 158 188
e 158 191
e 159 160
e 160 185
e 162 188
e 163 198
e 164 167
e 164 177
e 164 178
e 166 167
e 166 186
e 166 195
e 168 171
e 169 190
e 170 189
e 171 178
e 171 182
e 171 195
e 171 196
e 172 182
e 173 190
e 174 183
e 175 189
e 175 193
e 175 196
e 176 188
e 176 190
e 177 182
e 178 190
e 178 191
e 179 192
e 179 194
e 180 192
e 184 195
e 184 198
e 185 186
e 187 199
e 188 192
e 188 198
e 190 194
e 191 194
e 191 197
e 193 200
e 194 196
e 194 200
e 196 202
